Minimize
  - 4 y_0 - 5 y_1 - 10 y_2 - 2 y_3 - 17 y_4 - 7 y_5 - 5 y_6 - 5 y_7 - 9 y_8
   - 4 y_9 - 12 y_10 - 15 y_11 - 12 y_12 - 18 y_13 - 8 y_14 - 7 y_15
   - 9 y_16 - 10 y_17 - 4 y_18 + 13 x_0_1 + 39 x_0_2 + 11 x_0_3 + 84 x_0_4
   + 12 x_0_7 + 2 x_0_9 + 75 x_0_11 + 52 x_0_12 + 78 x_0_13 + 24 x_0_14
   + 30 x_0_16 + 32 x_0_17 + 13 x_0_18 + 51 x_1_2 + 19 x_1_3 + 27 x_1_6
   + 3 x_1_7 + 55 x_1_8 + 11 x_1_9 + 37 x_1_10 + 63 x_1_12 + 12 x_1_14
   + 18 x_1_16 + 46 x_1_17 + 24 x_1_18 + 87 x_2_4 + 48 x_2_5 + 24 x_2_6
   + 51 x_2_7 + 52 x_2_10 + 60 x_2_11 + 16 x_2_12 + 44 x_2_13 + 48 x_2_15
   + 69 x_2_16 + 20 x_2_17 + 74 x_3_4 + 24 x_3_5 + 10 x_3_6 + 20 x_3_7
   + 44 x_3_8 + 12 x_3_9 + 64 x_3_11 + 43 x_3_12 + 69 x_3_13 + 31 x_3_14
   + 23 x_3_15 + 6 x_3_18 + 95 x_4_5 + 81 x_4_6 + 41 x_4_11 + 82 x_4_13
   + 88 x_4_14 + 91 x_4_16 + 77 x_4_18 + 26 x_5_6 + 13 x_5_7 + 21 x_5_10
   + 88 x_5_11 + 89 x_5_13 + 20 x_5_14 + 2 x_5_15 + 25 x_5_18 + 29 x_5_19
   + 26 x_6_7 + 49 x_6_8 + 17 x_6_9 + 38 x_6_10 + 65 x_6_11 + 63 x_6_13
   + 39 x_6_14 + 45 x_6_16 + 23 x_6_17 + 5 x_6_18 + 19 x_6_19 + 58 x_7_8
   + 9 x_7_9 + 34 x_7_10 + 81 x_7_11 + 63 x_7_12 + 12 x_7_14 + 12 x_7_15
   + 44 x_7_17 + 24 x_7_18 + 21 x_7_19 + 55 x_8_9 + 28 x_8_11 + 51 x_8_12
   + 59 x_8_13 + 65 x_8_14 + 66 x_8_15 + 70 x_8_16 + 68 x_8_17 + 38 x_8_19
   + 31 x_9_10 + 54 x_9_12 + 35 x_9_17 + 15 x_9_18 + 17 x_9_19 + 68 x_10_12
   + 96 x_10_13 + 39 x_10_14 + 22 x_10_15 + 42 x_10_16 + 49 x_11_12
   + 42 x_11_13 + 90 x_11_14 + 87 x_11_15 + 78 x_11_17 + 60 x_11_19
   + 28 x_12_13 + 62 x_12_15 + 36 x_12_17 + 39 x_12_18 + 47 x_12_19
   + 100 x_13_14 + 89 x_13_15 + 106 x_13_16 + 65 x_13_18 + 70 x_13_19
   + 19 x_14_15 + 55 x_14_17 + 36 x_14_18 + 31 x_14_19 + 66 x_15_8
   + 24 x_15_16 + 37 x_15_17 + 29 x_15_19 + 61 x_16_17 + 42 x_16_18
   + 37 x_16_19 + 27 x_17_18 + 41 x_17_19 + 163 Constant
Subject To
 c_0: y_11 = 1
 c_1_0: y_0 + y_9 >= 1
 c_1_1: y_1 >= 1
 c_1_2: y_2 >= 1
 c_1_3: y_3 >= 1
 c_1_4: y_4 >= 1
 c_1_5: y_5 + y_15 >= 1
 c_1_6: y_6 >= 1
 c_1_7: y_7 >= 1
 c_1_8: y_8 >= 1
 c_1_9: y_0 + y_9 >= 1
 c_1_10: y_10 >= 1
 c_1_11: y_11 >= 1
 c_1_12: y_12 >= 1
 c_1_13: y_13 >= 1
 c_1_14: y_14 >= 1
 c_1_15: y_5 + y_15 >= 1
 c_1_16: y_16 >= 1
 c_1_17: y_17 >= 1
 c_1_18: y_18 >= 1
 c_1_19: y_19 >= 1
 c_2_0: - 2 y_0 + x_0_1 + x_0_2 + x_0_3 + x_0_4 + x_0_7 + x_0_9 + x_0_11
   + x_0_12 + x_0_13 + x_0_14 + x_0_16 + x_0_17 + x_0_18 = 0
 c_2_1: - 2 y_1 + x_0_1 + x_1_2 + x_1_3 + x_1_6 + x_1_7 + x_1_8 + x_1_9
   + x_1_10 + x_1_12 + x_1_14 + x_1_16 + x_1_17 + x_1_18 = 0
 c_2_2: - 2 y_2 + x_0_2 + x_1_2 + x_2_4 + x_2_5 + x_2_6 + x_2_7 + x_2_10
   + x_2_11 + x_2_12 + x_2_13 + x_2_15 + x_2_16 + x_2_17 = 0
 c_2_3: - 2 y_3 + x_0_3 + x_1_3 + x_3_4 + x_3_5 + x_3_6 + x_3_7 + x_3_8
   + x_3_9 + x_3_11 + x_3_12 + x_3_13 + x_3_14 + x_3_15 + x_3_18 = 0
 c_2_4: - 2 y_4 + x_0_4 + x_2_4 + x_3_4 + x_4_5 + x_4_6 + x_4_11 + x_4_13
   + x_4_14 + x_4_16 + x_4_18 = 0
 c_2_5: - 2 y_5 + x_2_5 + x_3_5 + x_4_5 + x_5_6 + x_5_7 + x_5_10 + x_5_11
   + x_5_13 + x_5_14 + x_5_15 + x_5_18 + x_5_19 = 0
 c_2_6: - 2 y_6 + x_1_6 + x_2_6 + x_3_6 + x_4_6 + x_5_6 + x_6_7 + x_6_8
   + x_6_9 + x_6_10 + x_6_11 + x_6_13 + x_6_14 + x_6_16 + x_6_17 + x_6_18
   + x_6_19 = 0
 c_2_7: - 2 y_7 + x_0_7 + x_1_7 + x_2_7 + x_3_7 + x_5_7 + x_6_7 + x_7_8
   + x_7_9 + x_7_10 + x_7_11 + x_7_12 + x_7_14 + x_7_15 + x_7_17 + x_7_18
   + x_7_19 = 0
 c_2_8: - 2 y_8 + x_1_8 + x_3_8 + x_6_8 + x_7_8 + x_8_9 + x_8_11 + x_8_12
   + x_8_13 + x_8_14 + x_8_16 + x_8_17 + x_8_19 + 2 x_15_8 = 0
 c_2_9: - 2 y_9 + x_0_9 + x_1_9 + x_3_9 + x_6_9 + x_7_9 + x_8_9 + x_9_10
   + x_9_12 + x_9_17 + x_9_18 + x_9_19 = 0
 c_2_10: - 2 y_10 + x_1_10 + x_2_10 + x_5_10 + x_6_10 + x_7_10 + x_9_10
   + x_10_12 + x_10_13 + x_10_14 + x_10_15 + x_10_16 = 0
 c_2_11: - 2 y_11 + x_0_11 + x_2_11 + x_3_11 + x_4_11 + x_5_11 + x_6_11
   + x_7_11 + x_8_11 + x_11_12 + x_11_13 + x_11_14 + x_11_15 + x_11_17
   + x_11_19 = 0
 c_2_12: - 2 y_12 + x_0_12 + x_1_12 + x_2_12 + x_3_12 + x_7_12 + x_8_12
   + x_9_12 + x_10_12 + x_11_12 + x_12_13 + x_12_15 + x_12_17 + x_12_18
   + x_12_19 = 0
 c_2_13: - 2 y_13 + x_0_13 + x_2_13 + x_3_13 + x_4_13 + x_5_13 + x_6_13
   + x_8_13 + x_10_13 + x_11_13 + x_12_13 + x_13_14 + x_13_15 + x_13_16
   + x_13_18 + x_13_19 = 0
 c_2_14: - 2 y_14 + x_0_14 + x_1_14 + x_3_14 + x_4_14 + x_5_14 + x_6_14
   + x_7_14 + x_8_14 + x_10_14 + x_11_14 + x_13_14 + x_14_15 + x_14_17
   + x_14_18 + x_14_19 = 0
 c_2_15: - 2 y_15 + x_2_15 + x_3_15 + x_5_15 + x_7_15 + x_10_15 + x_11_15
   + x_12_15 + x_13_15 + x_14_15 + 2 x_15_8 + x_15_16 + x_15_17 + x_15_19
   = 0
 c_2_16: - 2 y_16 + x_0_16 + x_1_16 + x_2_16 + x_4_16 + x_6_16 + x_8_16
   + x_10_16 + x_13_16 + x_15_16 + x_16_17 + x_16_18 + x_16_19 = 0
 c_2_17: - 2 y_17 + x_0_17 + x_1_17 + x_2_17 + x_6_17 + x_7_17 + x_8_17
   + x_9_17 + x_11_17 + x_12_17 + x_14_17 + x_15_17 + x_16_17 + x_17_18
   + x_17_19 = 0
 c_2_18: - 2 y_18 + x_0_18 + x_1_18 + x_3_18 + x_4_18 + x_5_18 + x_6_18
   + x_7_18 + x_9_18 + x_12_18 + x_13_18 + x_14_18 + x_16_18 + x_17_18 = 0
 c_2_19: - 2 y_19 + x_5_19 + x_6_19 + x_7_19 + x_8_19 + x_9_19 + x_11_19
   + x_12_19 + x_13_19 + x_14_19 + x_15_19 + x_16_19 + x_17_19 = 0
Bounds
 Constant = 1
Binaries
 y_0 y_1 y_2 y_3 y_4 y_5 y_6 y_7 y_8 y_9 y_10 y_11 y_12 y_13 y_14 y_15 y_16
 y_17 y_18 y_19 x_0_1 x_0_2 x_0_3 x_0_4 x_0_7 x_0_9 x_0_11 x_0_12 x_0_13
 x_0_14 x_0_16 x_0_17 x_0_18 x_1_2 x_1_3 x_1_6 x_1_7 x_1_8 x_1_9 x_1_10
 x_1_12 x_1_14 x_1_16 x_1_17 x_1_18 x_2_4 x_2_5 x_2_6 x_2_7 x_2_10 x_2_11
 x_2_12 x_2_13 x_2_15 x_2_16 x_2_17 x_3_4 x_3_5 x_3_6 x_3_7 x_3_8 x_3_9
 x_3_11 x_3_12 x_3_13 x_3_14 x_3_15 x_3_18 x_4_5 x_4_6 x_4_11 x_4_13 x_4_14
 x_4_16 x_4_18 x_5_6 x_5_7 x_5_10 x_5_11 x_5_13 x_5_14 x_5_15 x_5_18 x_5_19
 x_6_7 x_6_8 x_6_9 x_6_10 x_6_11 x_6_13 x_6_14 x_6_16 x_6_17 x_6_18 x_6_19
 x_7_8 x_7_9 x_7_10 x_7_11 x_7_12 x_7_14 x_7_15 x_7_17 x_7_18 x_7_19 x_8_9
 x_8_11 x_8_12 x_8_13 x_8_14 x_8_15 x_8_16 x_8_17 x_8_19 x_9_10 x_9_12
 x_9_17 x_9_18 x_9_19 x_10_12 x_10_13 x_10_14 x_10_15 x_10_16 x_11_12
 x_11_13 x_11_14 x_11_15 x_11_17 x_11_19 x_12_13 x_12_15 x_12_17 x_12_18
 x_12_19 x_13_14 x_13_15 x_13_16 x_13_18 x_13_19 x_14_15 x_14_17 x_14_18
 x_14_19 x_15_8 x_15_16 x_15_17 x_15_19 x_16_17 x_16_18 x_16_19 x_17_18
 x_17_19
End
